benchmarks_vrp/CMT12/tsp_classic/CMT12_8.vrp
NAME: CMT12_8
TYPE: CVRP
COMMENT: 819.56 - Cluster Nr.8
DIMENSION: 11
CAPACITY: 200
EDGE_WEIGHT_TYPE: EUC_2D
NODE_COORD_TYPE: TWOD_COORDS
NODE_COORD_SECTION: 
8 90 35
4 92 30
9 95 35
2 88 35
3 65 85
10 88 30
11 85 35
6 40 50
7 87 30
5 95 30
1 85 25
DEPOT_SECTION: 
6
-1
DEMAND_SECTION: 
1 10
7 10
2 20
8 10
9 20
3 40
6 0
5 30
10 10
4 10
11 30
EOF
