benchmarks_vrp/CMT12/tsp_classic/CMT12_8.tour
NAME: CMT12_8 solution
TYPE: TOUR
TOUR_SECTION:
6 1 7 10 4 5 9 8 2 11 3 -1
-1
EOF